(declare-fun cmp265.i.i_35_101 () (_ BitVec 1))
(declare-fun narrow_35_103 () (_ BitVec 1))
(declare-fun cmp261.not.i.i_35_100 () (_ BitVec 1))
(declare-fun i147.i.i_35_99 () (_ BitVec 64))
(declare-fun i137.i.i_35_96 () (_ BitVec 64))
(declare-fun i145.i.i_35_98 () (_ BitVec 64))
(declare-fun i139.i.i_35_97 () (_ BitVec 64))
(declare-fun src_reg_35_23 () (_ BitVec 64))
(declare-fun src_reg_35_22 () (_ BitVec 64))
(declare-fun dst_reg_35_5 () (_ BitVec 64))
(declare-fun dst_reg_35_4 () (_ BitVec 64))
(declare-fun i30.i32_35_95 () (_ BitVec 32))
(declare-fun src_reg_35_29 () (_ BitVec 32))
(declare-fun i29.i29_35_94 () (_ BitVec 32))
(declare-fun src_reg_35_28 () (_ BitVec 32))
(declare-fun i28.i26_35_93 () (_ BitVec 32))
(declare-fun src_reg_35_27 () (_ BitVec 32))
(declare-fun i27.i23_35_92 () (_ BitVec 32))
(declare-fun src_reg_35_26 () (_ BitVec 32))
(declare-fun i26.i20_35_91 () (_ BitVec 64))
(declare-fun src_reg_35_25 () (_ BitVec 64))
(declare-fun i25.i17_35_90 () (_ BitVec 64))
(declare-fun src_reg_35_24 () (_ BitVec 64))
(declare-fun i24.i14_35_89 () (_ BitVec 64))
(declare-fun i23.i11_35_88 () (_ BitVec 64))
(declare-fun i22.i8_35_87 () (_ BitVec 64))
(declare-fun src_reg_35_21 () (_ BitVec 64))
(declare-fun i21.i5_35_86 () (_ BitVec 64))
(declare-fun src_reg_35_20 () (_ BitVec 64))
(declare-fun i.i2_35_85 () (_ BitVec 32))
(declare-fun i30.i_35_84 () (_ BitVec 32))
(declare-fun dst_reg_35_11 () (_ BitVec 32))
(declare-fun i29.i_35_83 () (_ BitVec 32))
(declare-fun dst_reg_35_10 () (_ BitVec 32))
(declare-fun i28.i_35_82 () (_ BitVec 32))
(declare-fun dst_reg_35_9 () (_ BitVec 32))
(declare-fun i27.i_35_81 () (_ BitVec 32))
(declare-fun dst_reg_35_8 () (_ BitVec 32))
(declare-fun i26.i_35_80 () (_ BitVec 64))
(declare-fun dst_reg_35_7 () (_ BitVec 64))
(declare-fun i25.i_35_79 () (_ BitVec 64))
(declare-fun dst_reg_35_6 () (_ BitVec 64))
(declare-fun i24.i_35_78 () (_ BitVec 64))
(declare-fun i23.i_35_77 () (_ BitVec 64))
(declare-fun i22.i_35_76 () (_ BitVec 64))
(declare-fun dst_reg_35_3 () (_ BitVec 64))
(declare-fun i21.i_35_75 () (_ BitVec 64))
(declare-fun dst_reg_35_2 () (_ BitVec 64))
(declare-fun i.i_35_74 () (_ BitVec 32))
(declare-fun other_branch_src_reg_35_71 () (_ BitVec 8))
(declare-fun other_branch_src_reg_35_70 () (_ BitVec 32))
(declare-fun other_branch_src_reg_35_69 () (_ BitVec 32))
(declare-fun other_branch_src_reg_35_68 () (_ BitVec 32))
(declare-fun other_branch_src_reg_35_67 () (_ BitVec 32))
(declare-fun other_branch_src_reg_35_66 () (_ BitVec 32))
(declare-fun other_branch_src_reg_35_65 () (_ BitVec 32))
(declare-fun other_branch_src_reg_35_64 () (_ BitVec 32))
(declare-fun other_branch_src_reg_35_63 () (_ BitVec 32))
(declare-fun other_branch_src_reg_35_62 () (_ BitVec 32))
(declare-fun other_branch_src_reg_35_61 () (_ BitVec 64))
(declare-fun other_branch_src_reg_35_60 () (_ BitVec 64))
(declare-fun other_branch_src_reg_35_59 () (_ BitVec 64))
(declare-fun other_branch_src_reg_35_58 () (_ BitVec 64))
(declare-fun other_branch_src_reg_35_57 () (_ BitVec 64))
(declare-fun other_branch_src_reg_35_56 () (_ BitVec 64))
(declare-fun other_branch_src_reg_35_55 () (_ BitVec 32))
(declare-fun other_branch_src_reg_35_54 () (_ BitVec 32))
(declare-fun other_branch_dst_reg_35_53 () (_ BitVec 8))
(declare-fun other_branch_dst_reg_35_52 () (_ BitVec 32))
(declare-fun other_branch_dst_reg_35_51 () (_ BitVec 32))
(declare-fun other_branch_dst_reg_35_50 () (_ BitVec 32))
(declare-fun other_branch_dst_reg_35_49 () (_ BitVec 32))
(declare-fun other_branch_dst_reg_35_48 () (_ BitVec 32))
(declare-fun other_branch_dst_reg_35_47 () (_ BitVec 32))
(declare-fun other_branch_dst_reg_35_46 () (_ BitVec 32))
(declare-fun other_branch_dst_reg_35_45 () (_ BitVec 32))
(declare-fun other_branch_dst_reg_35_44 () (_ BitVec 32))
(declare-fun other_branch_dst_reg_35_43 () (_ BitVec 64))
(declare-fun other_branch_dst_reg_35_42 () (_ BitVec 64))
(declare-fun other_branch_dst_reg_35_41 () (_ BitVec 64))
(declare-fun other_branch_dst_reg_35_40 () (_ BitVec 64))
(declare-fun other_branch_dst_reg_35_39 () (_ BitVec 64))
(declare-fun other_branch_dst_reg_35_38 () (_ BitVec 64))
(declare-fun other_branch_dst_reg_35_37 () (_ BitVec 32))
(declare-fun other_branch_dst_reg_35_36 () (_ BitVec 32))
(declare-fun src_reg_35_35 () (_ BitVec 8))
(declare-fun src_reg_35_34 () (_ BitVec 32))
(declare-fun src_reg_35_33 () (_ BitVec 32))
(declare-fun src_reg_35_32 () (_ BitVec 32))
(declare-fun src_reg_35_31 () (_ BitVec 32))
(declare-fun src_reg_35_30 () (_ BitVec 32))
(declare-fun src_reg_35_19 () (_ BitVec 32))
(declare-fun src_reg_35_18 () (_ BitVec 32))
(declare-fun dst_reg_35_17 () (_ BitVec 8))
(declare-fun dst_reg_35_16 () (_ BitVec 32))
(declare-fun dst_reg_35_15 () (_ BitVec 32))
(declare-fun dst_reg_35_14 () (_ BitVec 32))
(declare-fun dst_reg_35_13 () (_ BitVec 32))
(declare-fun dst_reg_35_12 () (_ BitVec 32))
(declare-fun dst_reg_35_1 () (_ BitVec 32))
(declare-fun dst_reg_35_0 () (_ BitVec 32))
(declare-fun cmp.not.i_35_106 () (_ BitVec 1))
(declare-fun i.i35_35_104 () (_ BitVec 32))
(declare-fun cmp2.not.i_35_109 () (_ BitVec 1))
(declare-fun i1.i_35_107 () (_ BitVec 32))
(declare-fun i369.i551.i_35_124 () (_ BitVec 64))
(declare-fun cond392.i553.i_35_126 () (_ BitVec 64))
(declare-fun i368.i549.i_35_123 () (_ BitVec 64))
(declare-fun cmp387.i552.i_35_125 () (_ BitVec 1))
(declare-fun i367.i545.i_35_120 () (_ BitVec 64))
(declare-fun cond382.i547.i_35_122 () (_ BitVec 64))
(declare-fun i366.i543.i_35_119 () (_ BitVec 64))
(declare-fun cmp377.i546.i_35_121 () (_ BitVec 1))
(declare-fun i377.i.i_35_116 () (_ BitVec 64))
(declare-fun cond441.i.i_35_118 () (_ BitVec 64))
(declare-fun add433.i.i_35_115 () (_ BitVec 64))
(declare-fun cmp436.i.i_35_117 () (_ BitVec 1))
(declare-fun sub423.i.i_35_111 () (_ BitVec 64))
(declare-fun cond430.i.i_35_113 () (_ BitVec 64))
(declare-fun cmp425.i.i_35_112 () (_ BitVec 1))
(declare-fun other_branch_src_reg_35_270 () (_ BitVec 8))
(declare-fun other_branch_src_reg_35_198 () (_ BitVec 8))
(declare-fun other_branch_src_reg_35_269 () (_ BitVec 32))
(declare-fun other_branch_src_reg_35_197 () (_ BitVec 32))
(declare-fun other_branch_src_reg_35_268 () (_ BitVec 32))
(declare-fun other_branch_src_reg_35_196 () (_ BitVec 32))
(declare-fun other_branch_src_reg_35_267 () (_ BitVec 32))
(declare-fun other_branch_src_reg_35_195 () (_ BitVec 32))
(declare-fun other_branch_src_reg_35_266 () (_ BitVec 32))
(declare-fun other_branch_src_reg_35_194 () (_ BitVec 32))
(declare-fun other_branch_src_reg_35_265 () (_ BitVec 32))
(declare-fun other_branch_src_reg_35_193 () (_ BitVec 32))
(declare-fun other_branch_src_reg_35_264 () (_ BitVec 32))
(declare-fun other_branch_src_reg_35_192 () (_ BitVec 32))
(declare-fun other_branch_src_reg_35_263 () (_ BitVec 32))
(declare-fun other_branch_src_reg_35_191 () (_ BitVec 32))
(declare-fun other_branch_src_reg_35_262 () (_ BitVec 32))
(declare-fun other_branch_src_reg_35_190 () (_ BitVec 32))
(declare-fun other_branch_src_reg_35_261 () (_ BitVec 32))
(declare-fun other_branch_src_reg_35_189 () (_ BitVec 32))
(declare-fun other_branch_src_reg_35_260 () (_ BitVec 64))
(declare-fun other_branch_src_reg_35_188 () (_ BitVec 64))
(declare-fun other_branch_src_reg_35_259 () (_ BitVec 64))
(declare-fun other_branch_src_reg_35_187 () (_ BitVec 64))
(declare-fun other_branch_src_reg_35_258 () (_ BitVec 64))
(declare-fun other_branch_src_reg_35_186 () (_ BitVec 64))
(declare-fun other_branch_src_reg_35_257 () (_ BitVec 64))
(declare-fun other_branch_src_reg_35_185 () (_ BitVec 64))
(declare-fun other_branch_src_reg_35_256 () (_ BitVec 64))
(declare-fun other_branch_src_reg_35_184 () (_ BitVec 64))
(declare-fun other_branch_src_reg_35_255 () (_ BitVec 64))
(declare-fun other_branch_src_reg_35_183 () (_ BitVec 64))
(declare-fun other_branch_src_reg_35_254 () (_ BitVec 32))
(declare-fun other_branch_src_reg_35_182 () (_ BitVec 32))
(declare-fun other_branch_src_reg_35_253 () (_ BitVec 32))
(declare-fun other_branch_src_reg_35_181 () (_ BitVec 32))
(declare-fun other_branch_dst_reg_35_252 () (_ BitVec 8))
(declare-fun other_branch_dst_reg_35_180 () (_ BitVec 8))
(declare-fun other_branch_dst_reg_35_251 () (_ BitVec 32))
(declare-fun other_branch_dst_reg_35_179 () (_ BitVec 32))
(declare-fun other_branch_dst_reg_35_250 () (_ BitVec 32))
(declare-fun other_branch_dst_reg_35_178 () (_ BitVec 32))
(declare-fun other_branch_dst_reg_35_249 () (_ BitVec 32))
(declare-fun other_branch_dst_reg_35_177 () (_ BitVec 32))
(declare-fun other_branch_dst_reg_35_248 () (_ BitVec 32))
(declare-fun other_branch_dst_reg_35_176 () (_ BitVec 32))
(declare-fun other_branch_dst_reg_35_247 () (_ BitVec 32))
(declare-fun other_branch_dst_reg_35_175 () (_ BitVec 32))
(declare-fun other_branch_dst_reg_35_246 () (_ BitVec 32))
(declare-fun other_branch_dst_reg_35_174 () (_ BitVec 32))
(declare-fun other_branch_dst_reg_35_245 () (_ BitVec 32))
(declare-fun other_branch_dst_reg_35_173 () (_ BitVec 32))
(declare-fun other_branch_dst_reg_35_244 () (_ BitVec 32))
(declare-fun other_branch_dst_reg_35_172 () (_ BitVec 32))
(declare-fun other_branch_dst_reg_35_243 () (_ BitVec 32))
(declare-fun other_branch_dst_reg_35_171 () (_ BitVec 32))
(declare-fun other_branch_dst_reg_35_242 () (_ BitVec 64))
(declare-fun other_branch_dst_reg_35_170 () (_ BitVec 64))
(declare-fun other_branch_dst_reg_35_241 () (_ BitVec 64))
(declare-fun other_branch_dst_reg_35_169 () (_ BitVec 64))
(declare-fun other_branch_dst_reg_35_240 () (_ BitVec 64))
(declare-fun other_branch_dst_reg_35_168 () (_ BitVec 64))
(declare-fun other_branch_dst_reg_35_239 () (_ BitVec 64))
(declare-fun other_branch_dst_reg_35_167 () (_ BitVec 64))
(declare-fun other_branch_dst_reg_35_238 () (_ BitVec 64))
(declare-fun other_branch_dst_reg_35_166 () (_ BitVec 64))
(declare-fun other_branch_dst_reg_35_237 () (_ BitVec 64))
(declare-fun other_branch_dst_reg_35_165 () (_ BitVec 64))
(declare-fun other_branch_dst_reg_35_236 () (_ BitVec 32))
(declare-fun other_branch_dst_reg_35_164 () (_ BitVec 32))
(declare-fun other_branch_dst_reg_35_235 () (_ BitVec 32))
(declare-fun other_branch_dst_reg_35_163 () (_ BitVec 32))
(declare-fun src_reg_35_234 () (_ BitVec 8))
(declare-fun src_reg_35_162 () (_ BitVec 8))
(declare-fun src_reg_35_233 () (_ BitVec 32))
(declare-fun src_reg_35_161 () (_ BitVec 32))
(declare-fun src_reg_35_232 () (_ BitVec 32))
(declare-fun src_reg_35_160 () (_ BitVec 32))
(declare-fun src_reg_35_231 () (_ BitVec 32))
(declare-fun src_reg_35_159 () (_ BitVec 32))
(declare-fun src_reg_35_230 () (_ BitVec 32))
(declare-fun src_reg_35_158 () (_ BitVec 32))
(declare-fun src_reg_35_229 () (_ BitVec 32))
(declare-fun src_reg_35_157 () (_ BitVec 32))
(declare-fun src_reg_35_228 () (_ BitVec 32))
(declare-fun src_reg_35_156 () (_ BitVec 32))
(declare-fun src_reg_35_227 () (_ BitVec 32))
(declare-fun src_reg_35_155 () (_ BitVec 32))
(declare-fun src_reg_35_226 () (_ BitVec 32))
(declare-fun src_reg_35_154 () (_ BitVec 32))
(declare-fun src_reg_35_225 () (_ BitVec 32))
(declare-fun src_reg_35_153 () (_ BitVec 32))
(declare-fun src_reg_35_224 () (_ BitVec 64))
(declare-fun src_reg_35_152 () (_ BitVec 64))
(declare-fun src_reg_35_223 () (_ BitVec 64))
(declare-fun src_reg_35_151 () (_ BitVec 64))
(declare-fun src_reg_35_222 () (_ BitVec 64))
(declare-fun src_reg_35_150 () (_ BitVec 64))
(declare-fun src_reg_35_221 () (_ BitVec 64))
(declare-fun src_reg_35_149 () (_ BitVec 64))
(declare-fun src_reg_35_220 () (_ BitVec 64))
(declare-fun src_reg_35_148 () (_ BitVec 64))
(declare-fun src_reg_35_219 () (_ BitVec 64))
(declare-fun src_reg_35_147 () (_ BitVec 64))
(declare-fun src_reg_35_218 () (_ BitVec 32))
(declare-fun src_reg_35_146 () (_ BitVec 32))
(declare-fun src_reg_35_217 () (_ BitVec 32))
(declare-fun src_reg_35_145 () (_ BitVec 32))
(declare-fun dst_reg_35_216 () (_ BitVec 8))
(declare-fun dst_reg_35_144 () (_ BitVec 8))
(declare-fun dst_reg_35_215 () (_ BitVec 32))
(declare-fun dst_reg_35_143 () (_ BitVec 32))
(declare-fun dst_reg_35_214 () (_ BitVec 32))
(declare-fun dst_reg_35_142 () (_ BitVec 32))
(declare-fun dst_reg_35_213 () (_ BitVec 32))
(declare-fun dst_reg_35_141 () (_ BitVec 32))
(declare-fun dst_reg_35_212 () (_ BitVec 32))
(declare-fun dst_reg_35_140 () (_ BitVec 32))
(declare-fun dst_reg_35_211 () (_ BitVec 32))
(declare-fun dst_reg_35_139 () (_ BitVec 32))
(declare-fun dst_reg_35_210 () (_ BitVec 32))
(declare-fun dst_reg_35_138 () (_ BitVec 32))
(declare-fun dst_reg_35_209 () (_ BitVec 32))
(declare-fun dst_reg_35_137 () (_ BitVec 32))
(declare-fun dst_reg_35_208 () (_ BitVec 32))
(declare-fun dst_reg_35_136 () (_ BitVec 32))
(declare-fun dst_reg_35_207 () (_ BitVec 32))
(declare-fun dst_reg_35_135 () (_ BitVec 32))
(declare-fun dst_reg_35_206 () (_ BitVec 64))
(declare-fun dst_reg_35_134 () (_ BitVec 64))
(declare-fun dst_reg_35_205 () (_ BitVec 64))
(declare-fun dst_reg_35_133 () (_ BitVec 64))
(declare-fun dst_reg_35_204 () (_ BitVec 64))
(declare-fun dst_reg_35_132 () (_ BitVec 64))
(declare-fun dst_reg_35_203 () (_ BitVec 64))
(declare-fun dst_reg_35_131 () (_ BitVec 64))
(declare-fun dst_reg_35_202 () (_ BitVec 64))
(declare-fun dst_reg_35_130 () (_ BitVec 64))
(declare-fun dst_reg_35_201 () (_ BitVec 64))
(declare-fun dst_reg_35_129 () (_ BitVec 64))
(declare-fun dst_reg_35_200 () (_ BitVec 32))
(declare-fun dst_reg_35_128 () (_ BitVec 32))
(declare-fun dst_reg_35_199 () (_ BitVec 32))
(declare-fun dst_reg_35_127 () (_ BitVec 32))
(assert (let ((a!1 (and (= cmp2.not.i_35_109 #b1)
                (and (= cmp.not.i_35_106 #b1) (= narrow_35_103 #b0))))
      (a!2 (and (= cmp2.not.i_35_109 #b0)
                (and (= cmp.not.i_35_106 #b1) (= narrow_35_103 #b0))))
      (a!3 (and (= i.i2_35_85 other_branch_src_reg_35_181)
                (= other_branch_src_reg_35_55 other_branch_src_reg_35_182)
                (= i21.i5_35_86 other_branch_src_reg_35_183)
                (= i22.i8_35_87 other_branch_src_reg_35_184)
                (= i23.i11_35_88 other_branch_src_reg_35_185)
                (= i24.i14_35_89 other_branch_src_reg_35_186)
                (= i25.i17_35_90 other_branch_src_reg_35_187)
                (= i26.i20_35_91 other_branch_src_reg_35_188)
                (= i27.i23_35_92 other_branch_src_reg_35_189)
                (= i28.i26_35_93 other_branch_src_reg_35_190)
                (= i29.i29_35_94 other_branch_src_reg_35_191)
                (= i30.i32_35_95 other_branch_src_reg_35_192)
                (= other_branch_src_reg_35_66 other_branch_src_reg_35_193)
                (= other_branch_src_reg_35_67 other_branch_src_reg_35_194)
                (= other_branch_src_reg_35_68 other_branch_src_reg_35_195)
                (= other_branch_src_reg_35_69 other_branch_src_reg_35_196)
                (= other_branch_src_reg_35_70 other_branch_src_reg_35_197)
                (= other_branch_src_reg_35_71 other_branch_src_reg_35_198)
                (= i.i_35_74 other_branch_dst_reg_35_163)
                (= other_branch_dst_reg_35_37 other_branch_dst_reg_35_164)
                (= i21.i_35_75 other_branch_dst_reg_35_165)
                (= i22.i_35_76 other_branch_dst_reg_35_166)
                (= i23.i_35_77 other_branch_dst_reg_35_167)
                (= i24.i_35_78 other_branch_dst_reg_35_168)
                (= i25.i_35_79 other_branch_dst_reg_35_169)
                (= i26.i_35_80 other_branch_dst_reg_35_170)
                (= i27.i_35_81 other_branch_dst_reg_35_171)
                (= i28.i_35_82 other_branch_dst_reg_35_172)
                (= i29.i_35_83 other_branch_dst_reg_35_173)
                (= i30.i_35_84 other_branch_dst_reg_35_174)
                (= other_branch_dst_reg_35_48 other_branch_dst_reg_35_175)
                (= other_branch_dst_reg_35_49 other_branch_dst_reg_35_176)
                (= other_branch_dst_reg_35_50 other_branch_dst_reg_35_177)
                (= other_branch_dst_reg_35_51 other_branch_dst_reg_35_178)
                (= other_branch_dst_reg_35_52 other_branch_dst_reg_35_179)
                (= other_branch_dst_reg_35_53 other_branch_dst_reg_35_180)
                (= #x00000001 src_reg_35_145)
                (= src_reg_35_19 src_reg_35_146)
                (= src_reg_35_20 src_reg_35_147)
                (= src_reg_35_21 src_reg_35_148)
                (= src_reg_35_22 src_reg_35_149)
                (= src_reg_35_23 src_reg_35_150)
                (= src_reg_35_24 src_reg_35_151)
                (= src_reg_35_25 src_reg_35_152)
                (= src_reg_35_26 src_reg_35_153)
                (= src_reg_35_27 src_reg_35_154)
                (= src_reg_35_28 src_reg_35_155)
                (= src_reg_35_29 src_reg_35_156)
                (= src_reg_35_30 src_reg_35_157)
                (= src_reg_35_31 src_reg_35_158)
                (= src_reg_35_32 src_reg_35_159)
                (= src_reg_35_33 src_reg_35_160)
                (= src_reg_35_34 src_reg_35_161)
                (= src_reg_35_35 src_reg_35_162)
                (= #x00000001 dst_reg_35_127)
                (= dst_reg_35_1 dst_reg_35_128)
                (= dst_reg_35_2 dst_reg_35_129)
                (= dst_reg_35_3 dst_reg_35_130)
                (= dst_reg_35_4 dst_reg_35_131)
                (= dst_reg_35_5 dst_reg_35_132)
                (= dst_reg_35_6 dst_reg_35_133)
                (= dst_reg_35_7 dst_reg_35_134)
                (= dst_reg_35_8 dst_reg_35_135)
                (= dst_reg_35_9 dst_reg_35_136)
                (= dst_reg_35_10 dst_reg_35_137)
                (= dst_reg_35_11 dst_reg_35_138)
                (= dst_reg_35_12 dst_reg_35_139)
                (= dst_reg_35_13 dst_reg_35_140)
                (= dst_reg_35_14 dst_reg_35_141)
                (= dst_reg_35_15 dst_reg_35_142)
                (= dst_reg_35_16 dst_reg_35_143)
                (= dst_reg_35_17 dst_reg_35_144)))
      (a!7 (=> (and (= cmp.not.i_35_106 #b1) (= narrow_35_103 #b0))
               (and (= #x00000001 i1.i_35_107)
                    (ite (= i1.i_35_107 #x00000001)
                         (= cmp2.not.i_35_109 #b1)
                         (= cmp2.not.i_35_109 #b0)))))
      (a!8 (=> (= narrow_35_103 #b0)
               (and (= #x00000001 i.i35_35_104)
                    (ite (= i.i35_35_104 #x00000001)
                         (= cmp.not.i_35_106 #b1)
                         (= cmp.not.i_35_106 #b0))))))
(let ((a!4 (and (=> (= narrow_35_103 #b1) a!3)
                (=> (and (= cmp.not.i_35_106 #b0) (= narrow_35_103 #b0)) a!3)
                (=> a!2 a!3)
                (=> a!1
                    (and (= i.i2_35_85 other_branch_src_reg_35_181)
                         (= other_branch_src_reg_35_55
                            other_branch_src_reg_35_182)
                         (= i21.i5_35_86 other_branch_src_reg_35_183)
                         (= i22.i8_35_87 other_branch_src_reg_35_184)
                         (= cond392.i553.i_35_126 other_branch_src_reg_35_185)
                         (= i24.i14_35_89 other_branch_src_reg_35_186)
                         (= i25.i17_35_90 other_branch_src_reg_35_187)
                         (= i26.i20_35_91 other_branch_src_reg_35_188)
                         (= i27.i23_35_92 other_branch_src_reg_35_189)
                         (= i28.i26_35_93 other_branch_src_reg_35_190)
                         (= i29.i29_35_94 other_branch_src_reg_35_191)
                         (= i30.i32_35_95 other_branch_src_reg_35_192)
                         (= other_branch_src_reg_35_66
                            other_branch_src_reg_35_193)
                         (= other_branch_src_reg_35_67
                            other_branch_src_reg_35_194)
                         (= other_branch_src_reg_35_68
                            other_branch_src_reg_35_195)
                         (= other_branch_src_reg_35_69
                            other_branch_src_reg_35_196)
                         (= other_branch_src_reg_35_70
                            other_branch_src_reg_35_197)
                         (= other_branch_src_reg_35_71
                            other_branch_src_reg_35_198)
                         (= i.i_35_74 other_branch_dst_reg_35_163)
                         (= other_branch_dst_reg_35_37
                            other_branch_dst_reg_35_164)
                         (= i21.i_35_75 other_branch_dst_reg_35_165)
                         (= i22.i_35_76 other_branch_dst_reg_35_166)
                         (= i23.i_35_77 other_branch_dst_reg_35_167)
                         (= cond382.i547.i_35_122 other_branch_dst_reg_35_168)
                         (= i25.i_35_79 other_branch_dst_reg_35_169)
                         (= i26.i_35_80 other_branch_dst_reg_35_170)
                         (= i27.i_35_81 other_branch_dst_reg_35_171)
                         (= i28.i_35_82 other_branch_dst_reg_35_172)
                         (= i29.i_35_83 other_branch_dst_reg_35_173)
                         (= i30.i_35_84 other_branch_dst_reg_35_174)
                         (= other_branch_dst_reg_35_48
                            other_branch_dst_reg_35_175)
                         (= other_branch_dst_reg_35_49
                            other_branch_dst_reg_35_176)
                         (= other_branch_dst_reg_35_50
                            other_branch_dst_reg_35_177)
                         (= other_branch_dst_reg_35_51
                            other_branch_dst_reg_35_178)
                         (= other_branch_dst_reg_35_52
                            other_branch_dst_reg_35_179)
                         (= other_branch_dst_reg_35_53
                            other_branch_dst_reg_35_180)
                         (= #x00000001 src_reg_35_145)
                         (= src_reg_35_19 src_reg_35_146)
                         (= src_reg_35_20 src_reg_35_147)
                         (= src_reg_35_21 src_reg_35_148)
                         (= src_reg_35_22 src_reg_35_149)
                         (= cond430.i.i_35_113 src_reg_35_150)
                         (= src_reg_35_24 src_reg_35_151)
                         (= src_reg_35_25 src_reg_35_152)
                         (= src_reg_35_26 src_reg_35_153)
                         (= src_reg_35_27 src_reg_35_154)
                         (= src_reg_35_28 src_reg_35_155)
                         (= src_reg_35_29 src_reg_35_156)
                         (= src_reg_35_30 src_reg_35_157)
                         (= src_reg_35_31 src_reg_35_158)
                         (= src_reg_35_32 src_reg_35_159)
                         (= src_reg_35_33 src_reg_35_160)
                         (= src_reg_35_34 src_reg_35_161)
                         (= src_reg_35_35 src_reg_35_162)
                         (= #x00000001 dst_reg_35_127)
                         (= dst_reg_35_1 dst_reg_35_128)
                         (= dst_reg_35_2 dst_reg_35_129)
                         (= dst_reg_35_3 dst_reg_35_130)
                         (= cond441.i.i_35_118 dst_reg_35_131)
                         (= dst_reg_35_5 dst_reg_35_132)
                         (= dst_reg_35_6 dst_reg_35_133)
                         (= dst_reg_35_7 dst_reg_35_134)
                         (= dst_reg_35_8 dst_reg_35_135)
                         (= dst_reg_35_9 dst_reg_35_136)
                         (= dst_reg_35_10 dst_reg_35_137)
                         (= dst_reg_35_11 dst_reg_35_138)
                         (= dst_reg_35_12 dst_reg_35_139)
                         (= dst_reg_35_13 dst_reg_35_140)
                         (= dst_reg_35_14 dst_reg_35_141)
                         (= dst_reg_35_15 dst_reg_35_142)
                         (= dst_reg_35_16 dst_reg_35_143)
                         (= dst_reg_35_17 dst_reg_35_144)))
                (= dst_reg_35_127 dst_reg_35_199)
                (= dst_reg_35_128 dst_reg_35_200)
                (= dst_reg_35_129 dst_reg_35_201)
                (= dst_reg_35_130 dst_reg_35_202)
                (= dst_reg_35_131 dst_reg_35_203)
                (= dst_reg_35_132 dst_reg_35_204)
                (= dst_reg_35_133 dst_reg_35_205)
                (= dst_reg_35_134 dst_reg_35_206)
                (= dst_reg_35_135 dst_reg_35_207)
                (= dst_reg_35_136 dst_reg_35_208)
                (= dst_reg_35_137 dst_reg_35_209)
                (= dst_reg_35_138 dst_reg_35_210)
                (= dst_reg_35_139 dst_reg_35_211)
                (= dst_reg_35_140 dst_reg_35_212)
                (= dst_reg_35_141 dst_reg_35_213)
                (= dst_reg_35_142 dst_reg_35_214)
                (= dst_reg_35_143 dst_reg_35_215)
                (= dst_reg_35_144 dst_reg_35_216)
                (= src_reg_35_145 src_reg_35_217)
                (= src_reg_35_146 src_reg_35_218)
                (= src_reg_35_147 src_reg_35_219)
                (= src_reg_35_148 src_reg_35_220)
                (= src_reg_35_149 src_reg_35_221)
                (= src_reg_35_150 src_reg_35_222)
                (= src_reg_35_151 src_reg_35_223)
                (= src_reg_35_152 src_reg_35_224)
                (= src_reg_35_153 src_reg_35_225)
                (= src_reg_35_154 src_reg_35_226)
                (= src_reg_35_155 src_reg_35_227)
                (= src_reg_35_156 src_reg_35_228)
                (= src_reg_35_157 src_reg_35_229)
                (= src_reg_35_158 src_reg_35_230)
                (= src_reg_35_159 src_reg_35_231)
                (= src_reg_35_160 src_reg_35_232)
                (= src_reg_35_161 src_reg_35_233)
                (= src_reg_35_162 src_reg_35_234)
                (= other_branch_dst_reg_35_163 other_branch_dst_reg_35_235)
                (= other_branch_dst_reg_35_164 other_branch_dst_reg_35_236)
                (= other_branch_dst_reg_35_165 other_branch_dst_reg_35_237)
                (= other_branch_dst_reg_35_166 other_branch_dst_reg_35_238)
                (= other_branch_dst_reg_35_167 other_branch_dst_reg_35_239)
                (= other_branch_dst_reg_35_168 other_branch_dst_reg_35_240)
                (= other_branch_dst_reg_35_169 other_branch_dst_reg_35_241)
                (= other_branch_dst_reg_35_170 other_branch_dst_reg_35_242)
                (= other_branch_dst_reg_35_171 other_branch_dst_reg_35_243)
                (= other_branch_dst_reg_35_172 other_branch_dst_reg_35_244)
                (= other_branch_dst_reg_35_173 other_branch_dst_reg_35_245)
                (= other_branch_dst_reg_35_174 other_branch_dst_reg_35_246)
                (= other_branch_dst_reg_35_175 other_branch_dst_reg_35_247)
                (= other_branch_dst_reg_35_176 other_branch_dst_reg_35_248)
                (= other_branch_dst_reg_35_177 other_branch_dst_reg_35_249)
                (= other_branch_dst_reg_35_178 other_branch_dst_reg_35_250)
                (= other_branch_dst_reg_35_179 other_branch_dst_reg_35_251)
                (= other_branch_dst_reg_35_180 other_branch_dst_reg_35_252)
                (= other_branch_src_reg_35_181 other_branch_src_reg_35_253)
                (= other_branch_src_reg_35_182 other_branch_src_reg_35_254)
                (= other_branch_src_reg_35_183 other_branch_src_reg_35_255)
                (= other_branch_src_reg_35_184 other_branch_src_reg_35_256)
                (= other_branch_src_reg_35_185 other_branch_src_reg_35_257)
                (= other_branch_src_reg_35_186 other_branch_src_reg_35_258)
                (= other_branch_src_reg_35_187 other_branch_src_reg_35_259)
                (= other_branch_src_reg_35_188 other_branch_src_reg_35_260)
                (= other_branch_src_reg_35_189 other_branch_src_reg_35_261)
                (= other_branch_src_reg_35_190 other_branch_src_reg_35_262)
                (= other_branch_src_reg_35_191 other_branch_src_reg_35_263)
                (= other_branch_src_reg_35_192 other_branch_src_reg_35_264)
                (= other_branch_src_reg_35_193 other_branch_src_reg_35_265)
                (= other_branch_src_reg_35_194 other_branch_src_reg_35_266)
                (= other_branch_src_reg_35_195 other_branch_src_reg_35_267)
                (= other_branch_src_reg_35_196 other_branch_src_reg_35_268)
                (= other_branch_src_reg_35_197 other_branch_src_reg_35_269)
                (= other_branch_src_reg_35_198 other_branch_src_reg_35_270)))
      (a!6 (=> a!1
               (and (= sub423.i.i_35_111
                       (bvadd i139.i.i_35_97 #xffffffffffffffff))
                    (ite (bvslt i147.i.i_35_99 sub423.i.i_35_111)
                         (= cmp425.i.i_35_112 #b1)
                         (= cmp425.i.i_35_112 #b0))
                    (ite (= cmp425.i.i_35_112 #b1)
                         (= cond430.i.i_35_113 i147.i.i_35_99)
                         (= cond430.i.i_35_113 sub423.i.i_35_111))
                    (= add433.i.i_35_115
                       (bvadd i145.i.i_35_98 #x0000000000000001))
                    (= dst_reg_35_4 i377.i.i_35_116)
                    (ite (bvsgt add433.i.i_35_115 i377.i.i_35_116)
                         (= cmp436.i.i_35_117 #b1)
                         (= cmp436.i.i_35_117 #b0))
                    (ite (= cmp436.i.i_35_117 #b1)
                         (= cond441.i.i_35_118 add433.i.i_35_115)
                         (= cond441.i.i_35_118 i377.i.i_35_116))
                    (= i24.i_35_78 i366.i543.i_35_119)
                    (= i24.i14_35_89 i367.i545.i_35_120)
                    (ite (bvslt i366.i543.i_35_119 i367.i545.i_35_120)
                         (= cmp377.i546.i_35_121 #b1)
                         (= cmp377.i546.i_35_121 #b0))
                    (ite (= cmp377.i546.i_35_121 #b1)
                         (= cond382.i547.i_35_122 i366.i543.i_35_119)
                         (= cond382.i547.i_35_122 i367.i545.i_35_120))
                    (= i23.i_35_77 i368.i549.i_35_123)
                    (= i23.i11_35_88 i369.i551.i_35_124)
                    (ite (bvsgt i368.i549.i_35_123 i369.i551.i_35_124)
                         (= cmp387.i552.i_35_125 #b1)
                         (= cmp387.i552.i_35_125 #b0))
                    (ite (= cmp387.i552.i_35_125 #b1)
                         (= cond392.i553.i_35_126 i368.i549.i_35_123)
                         (= cond392.i553.i_35_126 i369.i551.i_35_124))))))
(let ((a!5 (=> (or a!1
                   a!2
                   (and (= cmp.not.i_35_106 #b0) (= narrow_35_103 #b0))
                   (= narrow_35_103 #b1))
               a!4)))
  (and a!5
       a!6
       a!7
       a!8
       (= dst_reg_35_0 dst_reg_35_0)
       (= dst_reg_35_1 dst_reg_35_1)
       (= dst_reg_35_2 dst_reg_35_2)
       (= dst_reg_35_3 dst_reg_35_3)
       (= dst_reg_35_4 dst_reg_35_4)
       (= dst_reg_35_5 dst_reg_35_5)
       (= dst_reg_35_6 dst_reg_35_6)
       (= dst_reg_35_7 dst_reg_35_7)
       (= dst_reg_35_8 dst_reg_35_8)
       (= dst_reg_35_9 dst_reg_35_9)
       (= dst_reg_35_10 dst_reg_35_10)
       (= dst_reg_35_11 dst_reg_35_11)
       (= dst_reg_35_12 dst_reg_35_12)
       (= dst_reg_35_13 dst_reg_35_13)
       (= dst_reg_35_14 dst_reg_35_14)
       (= dst_reg_35_15 dst_reg_35_15)
       (= dst_reg_35_16 dst_reg_35_16)
       (= dst_reg_35_17 dst_reg_35_17)
       (= src_reg_35_18 src_reg_35_18)
       (= src_reg_35_19 src_reg_35_19)
       (= src_reg_35_20 src_reg_35_20)
       (= src_reg_35_21 src_reg_35_21)
       (= src_reg_35_22 src_reg_35_22)
       (= src_reg_35_23 src_reg_35_23)
       (= src_reg_35_24 src_reg_35_24)
       (= src_reg_35_25 src_reg_35_25)
       (= src_reg_35_26 src_reg_35_26)
       (= src_reg_35_27 src_reg_35_27)
       (= src_reg_35_28 src_reg_35_28)
       (= src_reg_35_29 src_reg_35_29)
       (= src_reg_35_30 src_reg_35_30)
       (= src_reg_35_31 src_reg_35_31)
       (= src_reg_35_32 src_reg_35_32)
       (= src_reg_35_33 src_reg_35_33)
       (= src_reg_35_34 src_reg_35_34)
       (= src_reg_35_35 src_reg_35_35)
       (= other_branch_dst_reg_35_36 other_branch_dst_reg_35_36)
       (= other_branch_dst_reg_35_37 other_branch_dst_reg_35_37)
       (= other_branch_dst_reg_35_38 other_branch_dst_reg_35_38)
       (= other_branch_dst_reg_35_39 other_branch_dst_reg_35_39)
       (= other_branch_dst_reg_35_40 other_branch_dst_reg_35_40)
       (= other_branch_dst_reg_35_41 other_branch_dst_reg_35_41)
       (= other_branch_dst_reg_35_42 other_branch_dst_reg_35_42)
       (= other_branch_dst_reg_35_43 other_branch_dst_reg_35_43)
       (= other_branch_dst_reg_35_44 other_branch_dst_reg_35_44)
       (= other_branch_dst_reg_35_45 other_branch_dst_reg_35_45)
       (= other_branch_dst_reg_35_46 other_branch_dst_reg_35_46)
       (= other_branch_dst_reg_35_47 other_branch_dst_reg_35_47)
       (= other_branch_dst_reg_35_48 other_branch_dst_reg_35_48)
       (= other_branch_dst_reg_35_49 other_branch_dst_reg_35_49)
       (= other_branch_dst_reg_35_50 other_branch_dst_reg_35_50)
       (= other_branch_dst_reg_35_51 other_branch_dst_reg_35_51)
       (= other_branch_dst_reg_35_52 other_branch_dst_reg_35_52)
       (= other_branch_dst_reg_35_53 other_branch_dst_reg_35_53)
       (= other_branch_src_reg_35_54 other_branch_src_reg_35_54)
       (= other_branch_src_reg_35_55 other_branch_src_reg_35_55)
       (= other_branch_src_reg_35_56 other_branch_src_reg_35_56)
       (= other_branch_src_reg_35_57 other_branch_src_reg_35_57)
       (= other_branch_src_reg_35_58 other_branch_src_reg_35_58)
       (= other_branch_src_reg_35_59 other_branch_src_reg_35_59)
       (= other_branch_src_reg_35_60 other_branch_src_reg_35_60)
       (= other_branch_src_reg_35_61 other_branch_src_reg_35_61)
       (= other_branch_src_reg_35_62 other_branch_src_reg_35_62)
       (= other_branch_src_reg_35_63 other_branch_src_reg_35_63)
       (= other_branch_src_reg_35_64 other_branch_src_reg_35_64)
       (= other_branch_src_reg_35_65 other_branch_src_reg_35_65)
       (= other_branch_src_reg_35_66 other_branch_src_reg_35_66)
       (= other_branch_src_reg_35_67 other_branch_src_reg_35_67)
       (= other_branch_src_reg_35_68 other_branch_src_reg_35_68)
       (= other_branch_src_reg_35_69 other_branch_src_reg_35_69)
       (= other_branch_src_reg_35_70 other_branch_src_reg_35_70)
       (= other_branch_src_reg_35_71 other_branch_src_reg_35_71)
       (= #x00000001 i.i_35_74)
       (= dst_reg_35_2 i21.i_35_75)
       (= dst_reg_35_3 i22.i_35_76)
       (= dst_reg_35_4 i23.i_35_77)
       (= dst_reg_35_5 i24.i_35_78)
       (= dst_reg_35_6 i25.i_35_79)
       (= dst_reg_35_7 i26.i_35_80)
       (= dst_reg_35_8 i27.i_35_81)
       (= dst_reg_35_9 i28.i_35_82)
       (= dst_reg_35_10 i29.i_35_83)
       (= dst_reg_35_11 i30.i_35_84)
       (= #x00000001 i.i2_35_85)
       (= src_reg_35_20 i21.i5_35_86)
       (= src_reg_35_21 i22.i8_35_87)
       (= src_reg_35_22 i23.i11_35_88)
       (= src_reg_35_23 i24.i14_35_89)
       (= src_reg_35_24 i25.i17_35_90)
       (= src_reg_35_25 i26.i20_35_91)
       (= src_reg_35_26 i27.i23_35_92)
       (= src_reg_35_27 i28.i26_35_93)
       (= src_reg_35_28 i29.i29_35_94)
       (= src_reg_35_29 i30.i32_35_95)
       (= dst_reg_35_4 i137.i.i_35_96)
       (= dst_reg_35_5 i139.i.i_35_97)
       (= src_reg_35_22 i145.i.i_35_98)
       (= src_reg_35_23 i147.i.i_35_99)
       (ite (bvsle i139.i.i_35_97 i145.i.i_35_98)
            (= cmp261.not.i.i_35_100 #b1)
            (= cmp261.not.i.i_35_100 #b0))
       (ite (bvsgt i137.i.i_35_96 i147.i.i_35_99)
            (= cmp265.i.i_35_101 #b1)
            (= cmp265.i.i_35_101 #b0))
       (ite (= cmp261.not.i.i_35_100 #b1)
            (= narrow_35_103 #b1)
            (= narrow_35_103 cmp265.i.i_35_101)))))))

;{"dst_reg":["dst_reg_35_0","dst_reg_35_1",[""],["dst_reg_35_2","dst_reg_35_3"],"dst_reg_35_4","dst_reg_35_5","dst_reg_35_6","dst_reg_35_7","dst_reg_35_8","dst_reg_35_9","dst_reg_35_10","dst_reg_35_11","dst_reg_35_12","dst_reg_35_13","","","dst_reg_35_14","dst_reg_35_15","dst_reg_35_16"],"other_branch_dst_reg":["other_branch_dst_reg_35_36","other_branch_dst_reg_35_37",[""],["other_branch_dst_reg_35_38","other_branch_dst_reg_35_39"],"other_branch_dst_reg_35_40","other_branch_dst_reg_35_41","other_branch_dst_reg_35_42","other_branch_dst_reg_35_43","other_branch_dst_reg_35_44","other_branch_dst_reg_35_45","other_branch_dst_reg_35_46","other_branch_dst_reg_35_47","other_branch_dst_reg_35_48","other_branch_dst_reg_35_49","","","other_branch_dst_reg_35_50","other_branch_dst_reg_35_51","other_branch_dst_reg_35_52"],"other_branch_src_reg":["other_branch_src_reg_35_54","other_branch_src_reg_35_55",[""],["other_branch_src_reg_35_56","other_branch_src_reg_35_57"],"other_branch_src_reg_35_58","other_branch_src_reg_35_59","other_branch_src_reg_35_60","other_branch_src_reg_35_61","other_branch_src_reg_35_62","other_branch_src_reg_35_63","other_branch_src_reg_35_64","other_branch_src_reg_35_65","other_branch_src_reg_35_66","other_branch_src_reg_35_67","","","other_branch_src_reg_35_68","other_branch_src_reg_35_69","other_branch_src_reg_35_70"],"src_reg":["src_reg_35_18","src_reg_35_19",[""],["src_reg_35_20","src_reg_35_21"],"src_reg_35_22","src_reg_35_23","src_reg_35_24","src_reg_35_25","src_reg_35_26","src_reg_35_27","src_reg_35_28","src_reg_35_29","src_reg_35_30","src_reg_35_31","","","src_reg_35_32","src_reg_35_33","src_reg_35_34"]}
;{"dst_reg":["dst_reg_35_199","dst_reg_35_200",[""],["dst_reg_35_201","dst_reg_35_202"],"dst_reg_35_203","dst_reg_35_204","dst_reg_35_205","dst_reg_35_206","dst_reg_35_207","dst_reg_35_208","dst_reg_35_209","dst_reg_35_210","dst_reg_35_211","dst_reg_35_212","","","dst_reg_35_213","dst_reg_35_214","dst_reg_35_215"],"other_branch_dst_reg":["other_branch_dst_reg_35_235","other_branch_dst_reg_35_236",[""],["other_branch_dst_reg_35_237","other_branch_dst_reg_35_238"],"other_branch_dst_reg_35_239","other_branch_dst_reg_35_240","other_branch_dst_reg_35_241","other_branch_dst_reg_35_242","other_branch_dst_reg_35_243","other_branch_dst_reg_35_244","other_branch_dst_reg_35_245","other_branch_dst_reg_35_246","other_branch_dst_reg_35_247","other_branch_dst_reg_35_248","","","other_branch_dst_reg_35_249","other_branch_dst_reg_35_250","other_branch_dst_reg_35_251"],"other_branch_src_reg":["other_branch_src_reg_35_253","other_branch_src_reg_35_254",[""],["other_branch_src_reg_35_255","other_branch_src_reg_35_256"],"other_branch_src_reg_35_257","other_branch_src_reg_35_258","other_branch_src_reg_35_259","other_branch_src_reg_35_260","other_branch_src_reg_35_261","other_branch_src_reg_35_262","other_branch_src_reg_35_263","other_branch_src_reg_35_264","other_branch_src_reg_35_265","other_branch_src_reg_35_266","","","other_branch_src_reg_35_267","other_branch_src_reg_35_268","other_branch_src_reg_35_269"],"src_reg":["src_reg_35_217","src_reg_35_218",[""],["src_reg_35_219","src_reg_35_220"],"src_reg_35_221","src_reg_35_222","src_reg_35_223","src_reg_35_224","src_reg_35_225","src_reg_35_226","src_reg_35_227","src_reg_35_228","src_reg_35_229","src_reg_35_230","","","src_reg_35_231","src_reg_35_232","src_reg_35_233"]}
